
        H = 185;
        W = 130;
        qtdeNiveis = 7;
        qtdeCategorias = 1;
        
        Wmin = [50];
        Wmax = [300];

        Ir = [{1,2,3,4}];
        h = [26,26,26,26];
        w = [8,8,8,8];
        d = [100,70,70,60];
        // dMin = [49,35,35,35]; // descomentar se necessario 
        
        v = [[42,42,70,70,70,35,35], [42,42,70,70,70,35,35], [42,42,70,70,70,35,35], [42,42,70,70,70,35,35]];
        
        
        l = [1,1,1,1];
        